50
500
341
340
309
301
294
294
292
291
284
281
276
273
273
271
269
259
246
230
224
223
222
220
215
214
211
207
207
205
201
197
195
191
186
177
176
174
174
172
171
170
147
145
142
141
133
131
112
112
111
100
